
Gurobi 6.5.2 (win64) logging started 07/22/16 20:28:30


Gurobi 6.5.2 (win64) logging started 07/22/16 20:28:30

Optimize a model with 347 rows, 132 columns and 784 nonzeros
Coefficient statistics:
  Matrix range    [1e+00, 1e+00]
  Objective range [2e+00, 6e+02]
  Bounds range    [1e+00, 1e+00]
  RHS range       [1e+00, 1e+00]
Found heuristic solution: objective 17
Presolve removed 284 rows and 22 columns
Presolve time: 0.00s
Presolved: 63 rows, 110 columns, 264 nonzeros
Variable types: 0 continuous, 110 integer (110 binary)

Root relaxation: objective 1.376000e+03, 28 iterations, 0.00 seconds

    Nodes    |    Current Node    |     Objective Bounds      |     Work
 Expl Unexpl |  Obj  Depth IntInf | Incumbent    BestBd   Gap | It/Node Time

*    0     0               0    1376.0000000 1376.00000  0.00%     -    0s

Explored 0 nodes (28 simplex iterations) in 0.02 seconds
Thread count was 8 (of 8 available processors)

Optimal solution found (tolerance 1.00e-04)
Best objective 1.376000000000e+03, best bound 1.376000000000e+03, gap 0.0%

Wrote requested result file 'H1\instance3\\Results3.lp'

